SECTION Graph 
Nodes 178
Edges 307
E 1 8 5
E 1 133 1
E 1 134 1
E 2 4 1
E 2 137 5
E 3 5 1
E 3 133 1
E 3 134 1
E 3 136 7
E 4 6 1
E 4 136 5
E 5 132 1
E 5 135 7
E 6 135 5
E 7 9 1
E 7 14 5
E 7 130 12
E 8 130 1
E 8 131 1
E 9 10 12
E 9 11 1
E 9 16 5
E 10 12 1
E 10 130 1
E 10 131 1
E 11 12 12
E 11 18 5
E 12 129 1
E 13 20 5
E 13 127 1
E 13 128 1
E 14 16 1
E 14 128 12
E 15 16 12
E 15 17 1
E 15 127 1
E 15 128 1
E 16 18 1
E 17 18 12
E 17 126 1
E 19 21 1
E 19 26 5
E 19 124 12
E 20 124 1
E 20 125 1
E 21 22 12
E 21 23 1
E 21 28 5
E 22 24 1
E 22 124 1
E 22 125 1
E 23 24 12
E 23 30 5
E 24 123 1
E 25 32 5
E 25 121 1
E 25 122 1
E 26 28 1
E 26 122 12
E 27 28 12
E 27 29 1
E 27 121 1
E 27 122 1
E 28 30 1
E 29 30 12
E 29 120 1
E 31 33 1
E 31 38 5
E 31 118 12
E 32 118 1
E 32 119 1
E 33 34 12
E 33 35 1
E 33 40 5
E 34 36 1
E 34 118 1
E 34 119 1
E 35 36 12
E 35 42 5
E 36 117 1
E 37 44 5
E 37 115 1
E 37 116 1
E 38 40 1
E 38 116 12
E 39 40 12
E 39 41 1
E 39 115 1
E 39 116 1
E 40 42 1
E 41 42 12
E 41 114 1
E 43 45 1
E 43 50 5
E 43 112 12
E 44 112 1
E 44 113 1
E 45 46 12
E 45 47 1
E 45 52 5
E 46 48 1
E 46 112 1
E 46 113 1
E 47 48 12
E 47 54 5
E 48 111 1
E 49 56 5
E 49 109 1
E 49 110 1
E 50 52 1
E 50 110 12
E 51 52 12
E 51 53 1
E 51 109 1
E 51 110 1
E 52 54 1
E 53 54 12
E 53 108 1
E 55 57 1
E 55 62 5
E 55 106 12
E 56 106 1
E 56 107 1
E 57 58 12
E 57 59 1
E 57 64 5
E 58 60 1
E 58 106 1
E 58 107 1
E 59 60 12
E 59 66 5
E 60 105 1
E 61 101 6
E 61 103 1
E 61 104 1
E 62 64 1
E 62 104 12
E 63 64 12
E 63 65 1
E 63 103 1
E 63 104 1
E 64 66 1
E 65 66 12
E 65 102 1
E 67 90 1
E 67 92 5
E 68 92 6
E 68 98 1
E 69 92 1
E 70 90 5
E 70 92 1
E 70 95 4
E 70 98 6
E 71 78 5
E 71 88 1
E 71 89 1
E 72 74 1
E 72 89 12
E 72 94 6
E 73 74 12
E 73 75 1
E 73 88 1
E 73 89 1
E 74 76 1
E 74 93 6
E 75 76 12
E 75 87 1
E 76 91 6
E 77 79 1
E 77 85 12
E 78 85 1
E 78 86 1
E 79 80 12
E 79 81 1
E 80 82 1
E 80 85 1
E 80 86 1
E 81 82 12
E 82 84 1
E 83 135 206
E 84 86 1
E 84 87 5
E 86 88 5
E 87 88 1
E 90 91 4
E 91 93 1
E 91 95 5
E 93 94 1
E 93 96 5
E 94 97 5
E 95 96 1
E 95 99 6
E 96 97 1
E 96 100 6
E 97 101 6
E 98 99 4
E 99 100 1
E 99 102 6
E 100 101 1
E 100 103 6
E 102 103 1
E 105 107 1
E 105 108 5
E 107 109 5
E 108 109 1
E 111 113 1
E 111 114 5
E 113 115 5
E 114 115 1
E 117 119 1
E 117 120 5
E 119 121 5
E 120 121 1
E 123 125 1
E 123 126 5
E 125 127 5
E 126 127 1
E 129 131 1
E 129 132 5
E 131 133 5
E 132 133 1
E 134 137 7
E 135 136 1
E 136 137 1
E 1 138 100000
E 2 138 100000
E 3 139 100000
E 4 139 100000
E 5 140 100000
E 6 140 100000
E 7 141 100000
E 8 141 100000
E 9 142 100000
E 10 142 100000
E 11 143 100000
E 12 143 100000
E 13 144 100000
E 14 144 100000
E 15 145 100000
E 16 145 100000
E 17 146 100000
E 18 146 100000
E 19 147 100000
E 20 147 100000
E 21 148 100000
E 22 148 100000
E 23 149 100000
E 24 149 100000
E 25 150 100000
E 26 150 100000
E 27 151 100000
E 28 151 100000
E 29 152 100000
E 30 152 100000
E 31 153 100000
E 32 153 100000
E 33 154 100000
E 34 154 100000
E 35 155 100000
E 36 155 100000
E 37 156 100000
E 38 156 100000
E 39 157 100000
E 40 157 100000
E 41 158 100000
E 42 158 100000
E 43 159 100000
E 44 159 100000
E 45 160 100000
E 46 160 100000
E 47 161 100000
E 48 161 100000
E 49 162 100000
E 50 162 100000
E 51 163 100000
E 52 163 100000
E 53 164 100000
E 54 164 100000
E 55 165 100000
E 56 165 100000
E 57 166 100000
E 58 166 100000
E 59 167 100000
E 60 167 100000
E 61 168 100000
E 62 168 100000
E 63 169 100000
E 64 169 100000
E 65 170 100000
E 66 170 100000
E 67 171 100000
E 68 171 100000
E 69 171 100000
E 70 171 100000
E 71 172 100000
E 72 172 100000
E 73 173 100000
E 74 173 100000
E 75 174 100000
E 76 174 100000
E 77 175 100000
E 78 175 100000
E 79 176 100000
E 80 176 100000
E 81 177 100000
E 82 177 100000
E 83 178 100000
END 

SECTION Terminals 
Terminals 42
TP 138 159
TP 139 160
TP 140 161
TP 141 162
TP 142 163
TP 143 164
TP 144 165
TP 145 166
TP 146 167
TP 147 168
TP 148 169
TP 149 170
TP 150 171
TP 151 172
TP 152 173
TP 153 174
TP 154 175
TP 155 176
TP 156 177
TP 157 178
TP 158 57
END 
